
Gurobi 11.0.2 (linux64) logging started Tue 03 Dec 2024 09:05:58 AM CET

Set parameter LogFile to value "./res/knapPI_11_50_1000/knapPI_11_50_1000_62/grb_dom.log"
Set parameter Presolve to value 0
Set parameter Aggregate to value 0
Set parameter Heuristics to value 0
Set parameter LPWarmStart to value 0
Set parameter NLPHeur to value 0
Set parameter PreDepRow to value 0
Set parameter PreDual to value 0
Set parameter RINS to value 0
Set parameter Symmetry to value 0
Set parameter NodeLimit to value 1
Set parameter Threads to value 1

Gurobi 11.0.2 (linux64) logging started Tue 03 Dec 2024 09:05:58 AM CET

Set parameter LogFile to value "./res/knapPI_11_50_1000/knapPI_11_50_1000_62/grb_dom.log"
Set parameter NLPHeur to value 0
Set parameter LPWarmStart to value 0
Set parameter PreDepRow to value 0
Set parameter Symmetry to value 0
Set parameter Presolve to value 0
Gurobi Optimizer version 11.0.2 build v11.0.2rc0 (linux64 - "Pop!_OS 20.04 LTS")

CPU model: Intel(R) Core(TM) i7-8650U CPU @ 1.90GHz, instruction set [SSE2|AVX|AVX2]
Thread count: 4 physical cores, 4 logical processors, using up to 1 threads

Optimize a model with 9427 rows, 50 columns and 90187 nonzeros
Model fingerprint: 0x4e6b2c28
Variable types: 0 continuous, 50 integer (50 binary)
Coefficient statistics:
  Matrix range     [1e+00, 2e+03]
  Objective range  [8e+01, 2e+03]
  Bounds range     [0e+00, 0e+00]
  RHS range        [2e+04, 2e+04]
Variable types: 0 continuous, 50 integer (50 binary)

Root relaxation: objective 2.490479e+04, 2 iterations, 0.02 seconds (0.00 work units)

    Nodes    |    Current Node    |     Objective Bounds      |     Work
 Expl Unexpl |  Obj  Depth IntInf | Incumbent    BestBd   Gap | It/Node Time

     0     0 24904.7938    0    1          - 24904.7938      -     -    0s
     0     0 24904.7938    0    2          - 24904.7938      -     -    0s
     0     0 24904.7938    0    2          - 24904.7938      -     -    0s
     0     0 24789.5312    0    2          - 24789.5312      -     -    0s
     0     0 24789.5312    0    3          - 24789.5312      -     -    0s
     0     0 24789.5312    0    3          - 24789.5312      -     -    0s
     0     0 24789.5312    0    2          - 24789.5312      -     -    0s
     0     0 24789.5312    0    3          - 24789.5312      -     -    0s
     0     0 24789.5312    0    4          - 24789.5312      -     -    0s
     0     0 24789.5312    0    4          - 24789.5312      -     -    0s
     0     0 24789.5312    0    4          - 24789.5312      -     -    0s
     0     0 24789.5312    0    5          - 24789.5312      -     -    0s
     0     0 24788.3509    0    1          - 24788.3509      -     -    0s
     0     0 24788.3509    0    5          - 24788.3509      -     -    0s
     0     0 24788.3509    0    5          - 24788.3509      -     -    1s
     0     0 24788.3509    0    6          - 24788.3509      -     -    1s
     0     0 24788.3509    0    4          - 24788.3509      -     -    1s
     0     0 24788.3509    0    4          - 24788.3509      -     -    1s
     0     0 24788.3509    0    3          - 24788.3509      -     -    1s
*    0     0               0    24781.000000 24781.0000  0.00%     -    1s

Cutting planes:
  Cover: 1
  MIR: 3
  StrongCG: 1
  RLT: 1

Explored 1 nodes (33 simplex iterations) in 1.42 seconds (0.61 work units)
Thread count was 1 (of 4 available processors)

Solution count 1: 24781 

Optimal solution found (tolerance 1.00e-04)
Best objective 2.478100000000e+04, best bound 2.478100000000e+04, gap 0.0000%

User-callback calls 910, time in user-callback 0.01 sec
opt = true
obj = 24781.0
nb_dom_cuts = 9426
solved_time = 1.4191
opt_val = 24781.0
